100
32
22
20
5
14
27
21
6
7
6
1
18
1
1
2
2
2
2
1
1
1
1
17
1
17
17
4
1
1
1
2
1
2
1
2
1
4
16
2
19
1
3
4
1
2
2
2
3
2
4
1
1
1
23
2
2
1
3
1
4
1
1
20
1
3
12
18
1
1
1
21
1
2
1
1
4
2
1
1
3
1
2
3
3
1
4
1
1
1
1
4
2
1
2
1
2
1
17
1
1
1